benchmarks_CP/INST_36x36/20/inst36x36_20_38.dzn
S=6;
start=[|
-1,	14,	16,	-1,	-1,	11,	-1,	-1,	32,	-1,	-1,	26,	10,	-1,	7,	-1,	-1,	-1,	-1,	-1,	-1,	-1,	-1,	-1,	-1,	-1,	-1,	-1,	-1,	-1,	-1,	-1,	-1,	-1,	-1,	-1|
27,	-1,	-1,	-1,	-1,	26,	-1,	19,	21,	10,	-1,	2,	14,	-1,	-1,	-1,	-1,	-1,	-1,	-1,	-1,	-1,	-1,	-1,	-1,	-1,	-1,	-1,	-1,	-1,	-1,	-1,	-1,	-1,	-1,	-1|
-1,	1,	5,	-1,	-1,	-1,	-1,	-1,	-1,	-1,	-1,	-1,	-1,	-1,	-1,	-1,	-1,	-1,	-1,	-1,	30,	-1,	26,	-1,	-1,	-1,	-1,	-1,	-1,	-1,	-1,	20,	-1,	-1,	-1,	-1|
-1,	25,	20,	-1,	-1,	-1,	-1,	-1,	-1,	-1,	33,	-1,	-1,	-1,	-1,	-1,	34,	-1,	-1,	-1,	-1,	-1,	-1,	-1,	-1,	16,	15,	-1,	-1,	-1,	-1,	-1,	4,	-1,	-1,	-1|
-1,	-1,	15,	-1,	31,	-1,	-1,	-1,	-1,	-1,	-1,	-1,	-1,	-1,	-1,	-1,	-1,	-1,	-1,	-1,	-1,	-1,	1,	20,	-1,	-1,	-1,	-1,	-1,	26,	-1,	-1,	-1,	-1,	-1,	9|
-1,	-1,	-1,	34,	-1,	-1,	-1,	-1,	-1,	-1,	-1,	-1,	-1,	5,	-1,	-1,	-1,	-1,	-1,	-1,	-1,	2,	-1,	-1,	-1,	-1,	-1,	-1,	-1,	-1,	36,	-1,	16,	14,	-1,	-1|
17,	-1,	-1,	-1,	-1,	-1,	-1,	-1,	-1,	-1,	-1,	-1,	-1,	-1,	-1,	-1,	-1,	-1,	-1,	-1,	26,	23,	-1,	-1,	-1,	-1,	-1,	-1,	-1,	-1,	-1,	-1,	-1,	-1,	-1,	-1|
-1,	-1,	26,	14,	-1,	-1,	15,	-1,	19,	-1,	-1,	3,	-1,	-1,	8,	-1,	-1,	7,	-1,	-1,	-1,	-1,	-1,	-1,	-1,	-1,	-1,	-1,	-1,	-1,	-1,	-1,	-1,	-1,	-1,	-1|
-1,	-1,	-1,	-1,	-1,	-1,	-1,	-1,	-1,	9,	-1,	24,	-1,	-1,	-1,	29,	-1,	-1,	-1,	30,	1,	34,	-1,	-1,	35,	-1,	8,	-1,	-1,	-1,	10,	21,	-1,	2,	25,	-1|
-1,	-1,	-1,	-1,	-1,	18,	-1,	-1,	30,	-1,	-1,	21,	-1,	-1,	-1,	-1,	20,	-1,	-1,	27,	-1,	17,	-1,	-1,	29,	-1,	-1,	28,	-1,	23,	14,	-1,	-1,	-1,	3,	-1|
21,	-1,	-1,	-1,	-1,	-1,	-1,	-1,	34,	-1,	-1,	-1,	-1,	14,	-1,	-1,	-1,	-1,	5,	-1,	20,	-1,	-1,	35,	-1,	19,	-1,	6,	-1,	-1,	-1,	-1,	-1,	-1,	-1,	-1|
-1,	-1,	-1,	25,	-1,	-1,	-1,	-1,	-1,	-1,	-1,	-1,	-1,	10,	-1,	-1,	-1,	-1,	-1,	-1,	-1,	-1,	-1,	3,	5,	-1,	-1,	21,	34,	-1,	7,	-1,	-1,	-1,	-1,	-1|
-1,	-1,	-1,	-1,	-1,	-1,	-1,	-1,	-1,	-1,	16,	-1,	34,	-1,	10,	-1,	4,	-1,	-1,	-1,	12,	-1,	-1,	-1,	-1,	-1,	18,	27,	-1,	-1,	19,	-1,	-1,	-1,	-1,	-1|
-1,	-1,	-1,	-1,	-1,	-1,	-1,	-1,	-1,	-1,	-1,	-1,	-1,	-1,	-1,	-1,	-1,	-1,	-1,	-1,	-1,	-1,	-1,	-1,	32,	17,	10,	-1,	-1,	-1,	-1,	18,	-1,	31,	-1,	-1|
-1,	-1,	-1,	26,	27,	23,	-1,	-1,	-1,	31,	19,	13,	-1,	-1,	-1,	-1,	-1,	5,	-1,	-1,	-1,	-1,	-1,	28,	8,	-1,	-1,	-1,	-1,	-1,	-1,	-1,	-1,	-1,	-1,	14|
-1,	-1,	-1,	-1,	-1,	6,	-1,	-1,	-1,	-1,	-1,	-1,	-1,	-1,	-1,	-1,	26,	18,	-1,	-1,	-1,	-1,	-1,	-1,	-1,	-1,	-1,	34,	-1,	-1,	-1,	2,	21,	32,	-1,	15|
-1,	-1,	-1,	-1,	-1,	-1,	6,	-1,	-1,	11,	-1,	-1,	-1,	-1,	-1,	-1,	-1,	-1,	-1,	19,	-1,	-1,	-1,	-1,	-1,	5,	-1,	-1,	-1,	-1,	-1,	-1,	7,	-1,	-1,	-1|
-1,	19,	-1,	-1,	-1,	-1,	-1,	5,	-1,	2,	-1,	-1,	-1,	-1,	-1,	-1,	-1,	-1,	-1,	-1,	-1,	-1,	-1,	-1,	26,	-1,	-1,	-1,	-1,	-1,	22,	-1,	-1,	-1,	-1,	-1|
-1,	-1,	-1,	-1,	14,	33,	29,	-1,	-1,	-1,	-1,	-1,	-1,	-1,	-1,	-1,	-1,	-1,	-1,	-1,	-1,	-1,	20,	-1,	-1,	-1,	21,	-1,	-1,	-1,	-1,	5,	-1,	27,	-1,	-1|
-1,	34,	-1,	6,	-1,	36,	-1,	-1,	5,	4,	-1,	-1,	-1,	20,	30,	-1,	2,	35,	-1,	-1,	-1,	-1,	-1,	-1,	-1,	-1,	-1,	-1,	9,	-1,	33,	-1,	23,	-1,	32,	-1|
-1,	-1,	-1,	-1,	-1,	-1,	22,	-1,	-1,	-1,	-1,	-1,	-1,	-1,	21,	6,	-1,	-1,	-1,	-1,	2,	36,	12,	-1,	3,	-1,	-1,	-1,	1,	-1,	-1,	-1,	-1,	-1,	-1,	-1|
25,	-1,	-1,	-1,	-1,	-1,	-1,	11,	18,	-1,	-1,	-1,	-1,	-1,	-1,	-1,	27,	12,	-1,	-1,	-1,	-1,	-1,	-1,	-1,	-1,	-1,	23,	22,	-1,	-1,	-1,	-1,	-1,	-1,	-1|
26,	20,	-1,	-1,	-1,	-1,	-1,	-1,	-1,	-1,	9,	-1,	-1,	-1,	-1,	-1,	-1,	-1,	-1,	-1,	-1,	-1,	-1,	-1,	-1,	-1,	28,	-1,	-1,	14,	-1,	-1,	-1,	-1,	-1,	10|
-1,	-1,	-1,	-1,	-1,	-1,	-1,	-1,	-1,	25,	31,	-1,	1,	-1,	-1,	-1,	-1,	-1,	-1,	7,	-1,	3,	-1,	-1,	-1,	-1,	-1,	-1,	6,	-1,	-1,	16,	-1,	28,	-1,	29|
18,	-1,	-1,	-1,	15,	-1,	-1,	-1,	-1,	-1,	-1,	-1,	-1,	-1,	-1,	-1,	14,	21,	-1,	-1,	-1,	-1,	-1,	-1,	-1,	-1,	-1,	-1,	-1,	-1,	-1,	-1,	-1,	-1,	11,	-1|
-1,	-1,	-1,	-1,	-1,	-1,	-1,	-1,	-1,	21,	-1,	-1,	-1,	-1,	29,	-1,	-1,	-1,	-1,	-1,	-1,	-1,	-1,	-1,	-1,	-1,	-1,	-1,	-1,	-1,	-1,	23,	-1,	-1,	-1,	-1|
35,	-1,	23,	-1,	-1,	3,	-1,	-1,	-1,	-1,	8,	-1,	-1,	-1,	-1,	-1,	-1,	-1,	-1,	-1,	-1,	-1,	-1,	-1,	-1,	15,	-1,	-1,	-1,	21,	26,	-1,	-1,	-1,	-1,	25|
-1,	-1,	8,	21,	-1,	-1,	-1,	-1,	-1,	-1,	-1,	-1,	-1,	-1,	-1,	5,	36,	-1,	-1,	11,	24,	-1,	25,	-1,	-1,	3,	9,	-1,	-1,	29,	-1,	-1,	-1,	-1,	-1,	-1|
-1,	-1,	-1,	-1,	28,	-1,	-1,	-1,	-1,	-1,	-1,	-1,	-1,	35,	3,	-1,	18,	-1,	-1,	8,	-1,	-1,	23,	15,	10,	-1,	-1,	-1,	-1,	13,	1,	-1,	12,	-1,	-1,	-1|
-1,	-1,	22,	-1,	-1,	12,	-1,	-1,	-1,	-1,	-1,	-1,	-1,	-1,	-1,	-1,	10,	-1,	-1,	-1,	-1,	-1,	-1,	-1,	-1,	-1,	-1,	7,	-1,	-1,	5,	14,	-1,	-1,	17,	-1|
-1,	-1,	-1,	-1,	-1,	-1,	-1,	-1,	17,	19,	-1,	-1,	-1,	-1,	-1,	-1,	-1,	-1,	-1,	-1,	-1,	-1,	-1,	-1,	-1,	6,	-1,	-1,	-1,	-1,	2,	-1,	-1,	-1,	-1,	-1|
-1,	-1,	-1,	-1,	-1,	-1,	-1,	22,	-1,	-1,	-1,	-1,	-1,	-1,	26,	-1,	-1,	-1,	-1,	-1,	-1,	-1,	-1,	-1,	-1,	-1,	-1,	18,	-1,	-1,	-1,	-1,	-1,	10,	-1,	-1|
-1,	-1,	-1,	-1,	-1,	-1,	-1,	-1,	24,	16,	-1,	-1,	-1,	-1,	-1,	-1,	-1,	-1,	-1,	-1,	-1,	-1,	-1,	19,	-1,	14,	-1,	-1,	-1,	-1,	-1,	-1,	-1,	-1,	-1,	-1|
-1,	-1,	-1,	12,	-1,	-1,	-1,	10,	-1,	-1,	-1,	-1,	-1,	-1,	-1,	-1,	32,	-1,	33,	-1,	-1,	-1,	28,	2,	-1,	-1,	-1,	24,	26,	8,	21,	-1,	-1,	-1,	-1,	-1|
-1,	-1,	13,	-1,	5,	-1,	-1,	21,	-1,	-1,	-1,	-1,	-1,	1,	33,	-1,	-1,	16,	-1,	-1,	-1,	-1,	34,	-1,	15,	-1,	-1,	10,	-1,	-1,	-1,	-1,	-1,	-1,	-1,	3|
-1,	-1,	-1,	-1,	-1,	-1,	-1,	-1,	-1,	-1,	-1,	-1,	-1,	-1,	-1,	-1,	-1,	-1,	30,	26,	-1,	8,	-1,	-1,	-1,	1,	-1,	-1,	33,	-1,	-1,	-1,	-1,	-1,	-1,	24|];
